opti conp nosym full conj unfix

# Cell parameters for benzene crystal (orthorhombic)
cell
  7.44 9.55 6.92 90.0 90.0 90.0

frac
C core -0.056900000000       0.138700000000      -0.005400000000
C core  0.056900000000      -0.138700000000       0.005400000000
C core -0.133500000000       0.046000000000       0.126400000000
C core  0.133500000000      -0.046000000000      -0.126400000000
C core  0.077400000000       0.092500000000      -0.129500000000
C core -0.077400000000      -0.092500000000       0.129500000000
H core -0.097600000000       0.244700000000      -0.017700000000
H core  0.097600000000      -0.244700000000       0.017700000000
H core -0.240900000000       0.079400000000       0.221800000000
H core  0.240900000000      -0.079400000000      -0.221800000000
H core  0.137100000000       0.163100000000      -0.231200000000
H core -0.137100000000      -0.163100000000       0.231200000000
C core  0.056900000000       0.638700000000       0.505400000000
C core -0.056900000000       0.361300000000       0.494600000000
C core  0.133500000000       0.546000000000       0.373600000000
C core -0.133500000000       0.454000000000       0.62640000000
C core -0.077400000000       0.592500000000       0.62950000000
C core  0.077400000000       0.407500000000       0.37050000000
H core  0.097600000000       0.744700000000       0.517700000000
H core -0.097600000000       0.255300000000       0.482300000000
H core  0.240900000000       0.579400000000       0.278200000000
H core -0.240900000000       0.420600000000       0.72180000000
H core -0.137100000000       0.663100000000       0.73120000000
H core  0.137100000000       0.336900000000       0.26880000000
C core  0.556900000000      -0.138700000000       0.49460000000
C core  0.443100000000       0.138700000000       0.50540000000
C core  0.633500000000      -0.046000000000       0.62640000000
C core  0.366500000000       0.046000000000       0.37360000000
C core  0.422600000000      -0.092500000000       0.37050000000
C core  0.577400000000       0.092500000000       0.62950000000
H core  0.597600000000      -0.244700000000       0.48230000000
H core  0.402400000000       0.244700000000       0.51770000000
H core  0.740900000000      -0.079400000000       0.72180000000
H core  0.259100000000       0.079400000000       0.27820000000
H core  0.362900000000      -0.163100000000       0.26880000000
H core  0.637100000000       0.163100000000       0.73120000000
C core  0.556900000000       0.638700000000      -0.00540000000
C core  0.443100000000       0.361300000000       0.00540000000
C core  0.633500000000       0.546000000000       0.12640000000
C core  0.366500000000       0.454000000000      -0.12640000000
C core  0.422600000000       0.592500000000      -0.12950000000
C core  0.577400000000       0.407500000000       0.12950000000
H core  0.597600000000       0.744700000000      -0.01770000000
H core  0.402400000000       0.255300000000       0.01770000000
H core  0.740900000000       0.579400000000       0.22180000000
H core  0.259100000000       0.420600000000      -0.22180000000
H core  0.362900000000       0.663100000000      -0.23120000000
H core  0.637100000000       0.336900000000       0.23120000000


# Space group
space
P 1

# External calculator configuration
# GULP will call the wrapper script, which calls gulp-mlips-client
external_call
./gulp_mlips_wrapper.sh
end

# Tell GULP where to find the derivative (energy/forces) file
external_drv gulp_mlip.drv

# Optional: write structure files for debugging
output xyz benzene
output cif benzene
output res benzene

gtol 0.001

# Save final structure
dump benzene_opt.res
