single conp nosym

# Benzene crystal structure
cell
  7.44 9.55 6.92 90.0 90.0 90.0

fractional
C  core 0.9431  0.1387  0.9946
C  core 0.5569  0.8613  0.4946
C  core 0.4431  0.3613  0.0054
C  core 0.0569  0.6387  0.5054
C  core 0.0569  0.8613  0.0054
C  core 0.4431  0.1387  0.5054
C  core 0.5569  0.6387  0.9946
C  core 0.9431  0.3613  0.4946
C  core 0.8663  0.0460  0.1265
C  core 0.6337  0.9540  0.6265
C  core 0.3663  0.4540  0.8735
C  core 0.1337  0.5460  0.3735
C  core 0.1337  0.9540  0.8735
C  core 0.3663  0.0460  0.3735
C  core 0.6337  0.5460  0.1265
C  core 0.8663  0.4540  0.6265
C  core 0.0775  0.0925  0.8703
C  core 0.4225  0.9075  0.3703
C  core 0.5775  0.4075  0.1297
C  core 0.9225  0.5925  0.6297
C  core 0.9225  0.9075  0.1297
C  core 0.5775  0.0925  0.6297
C  core 0.4225  0.5925  0.8703
C  core 0.0775  0.4075  0.3703
H  core 0.9020  0.2447  0.9811
H  core 0.5980  0.7553  0.4811
H  core 0.4020  0.2553  0.0189
H  core 0.0980  0.7447  0.5189
H  core 0.0980  0.7553  0.0189
H  core 0.4020  0.2447  0.5189
H  core 0.5980  0.7447  0.9811
H  core 0.9020  0.2553  0.4811
H  core 0.7591  0.0794  0.2219
H  core 0.7409  0.9206  0.7219
H  core 0.2591  0.4206  0.7781
H  core 0.2409  0.5794  0.2781
H  core 0.2409  0.9206  0.7781
H  core 0.2591  0.0794  0.2781
H  core 0.7409  0.5794  0.2219
H  core 0.7591  0.4206  0.7219
H  core 0.1371  0.1631  0.7686
H  core 0.3629  0.8369  0.2686
H  core 0.6371  0.3369  0.2314
H  core 0.8629  0.6631  0.7314
H  core 0.8629  0.8369  0.2314
H  core 0.6371  0.1631  0.7314
H  core 0.3629  0.6631  0.7686
H  core 0.1371  0.3369  0.2686

# External MLIP calculator
external_call
./gulp_mlips_wrapper.sh
end
external_drv gulp_mlip.drv

# Output
output xyz benzene.xyz
